NAME : left_l_constant_constant_10_10_1.tsp
COMMENT : left_l_constant_constant_10_10_1.tsp
TYPE : TSP
DIMENSION : 19
EDGE_WEIGHT_TYPE : EUC_2D
NODE_COORD_SECTION
1 10.000000 10.000000
2 10.000000 11.000000
3 10.000000 12.000000
4 10.000000 13.000000
5 10.000000 14.000000
6 10.000000 15.000000
7 10.000000 16.000000
8 10.000000 17.000000
9 10.000000 18.000000
10 10.000000 19.000000
11 11.000000 10.000000
12 12.000000 10.000000
13 13.000000 10.000000
14 14.000000 10.000000
15 15.000000 10.000000
16 16.000000 10.000000
17 17.000000 10.000000
18 18.000000 10.000000
19 19.000000 10.000000
EOF